c Result of efficient AIG-to-CNF conversion using package CNF
p cnf 313 865
2 -236 310 -312 0
-2 236 0
-2 -310 0
-2 312 0
3 309 -311 0
-3 -309 0
-3 311 0
4 308 -311 0
-4 -308 0
-4 311 0
5 311 -6 0
5 -311 -312 -53 0
-5 -311 53 0
-5 311 6 0
-5 -311 312 0
6 231 232 7 -8 0
6 -231 -232 7 -8 0
-6 8 0
-6 -231 232 0
-6 -7 0
-6 231 -232 0
-7 -233 -234 0
-7 233 234 0
7 233 -234 0
7 -233 234 0
8 227 228 9 -10 0
8 -227 -228 9 -10 0
-8 10 0
-8 -227 228 0
-8 -9 0
-8 227 -228 0
-9 -229 -230 0
-9 229 230 0
9 229 -230 0
9 -229 230 0
10 223 224 11 -12 0
10 -223 -224 11 -12 0
-10 12 0
-10 -223 224 0
-10 -11 0
-10 223 -224 0
-11 -225 -226 0
-11 225 226 0
11 225 -226 0
11 -225 226 0
12 219 220 13 -14 0
12 -219 -220 13 -14 0
-12 14 0
-12 -219 220 0
-12 -13 0
-12 219 -220 0
-13 -221 -222 0
-13 221 222 0
13 221 -222 0
13 -221 222 0
14 215 216 15 -16 0
14 -215 -216 15 -16 0
-14 16 0
-14 -215 216 0
-14 -15 0
-14 215 -216 0
-15 -217 -218 0
-15 217 218 0
15 217 -218 0
15 -217 218 0
16 211 212 17 -18 0
16 -211 -212 17 -18 0
-16 18 0
-16 -211 212 0
-16 -17 0
-16 211 -212 0
-17 -213 -214 0
-17 213 214 0
17 213 -214 0
17 -213 214 0
18 207 208 19 -20 0
18 -207 -208 19 -20 0
-18 20 0
-18 -207 208 0
-18 -19 0
-18 207 -208 0
-19 -209 -210 0
-19 209 210 0
19 209 -210 0
19 -209 210 0
20 203 204 21 -22 0
20 -203 -204 21 -22 0
-20 22 0
-20 -203 204 0
-20 -21 0
-20 203 -204 0
-21 -205 -206 0
-21 205 206 0
21 205 -206 0
21 -205 206 0
22 199 200 23 -24 0
22 -199 -200 23 -24 0
-22 24 0
-22 -199 200 0
-22 -23 0
-22 199 -200 0
-23 -201 -202 0
-23 201 202 0
23 201 -202 0
23 -201 202 0
24 180 196 25 -26 0
24 -180 -196 25 -26 0
-24 26 0
-24 -180 196 0
-24 -25 0
-24 180 -196 0
-25 -197 -198 0
-25 197 198 0
25 197 -198 0
25 -197 198 0
26 172 177 27 -28 0
26 -172 -177 27 -28 0
-26 28 0
-26 -172 177 0
-26 -27 0
-26 172 -177 0
-27 -178 -179 0
-27 178 179 0
27 178 -179 0
27 -178 179 0
28 165 169 29 -30 0
28 -165 -169 29 -30 0
-28 30 0
-28 -165 169 0
-28 -29 0
-28 165 -169 0
-29 -170 -171 0
-29 170 171 0
29 170 -171 0
29 -170 171 0
30 -164 -173 -185 -31 0
-30 31 0
-30 164 0
-30 185 0
-30 173 0
31 185 186 190 -32 0
31 -185 -186 -190 -32 0
-31 -186 190 0
-31 185 -190 0
-31 32 0
-31 -185 186 0
32 190 192 194 -33 0
32 -190 -192 -194 -33 0
-32 -192 194 0
-32 190 -194 0
-32 33 0
-32 -190 192 0
33 181 183 194 -34 0
33 -181 -183 -194 -34 0
-33 -183 194 0
-33 181 -194 0
-33 34 0
-33 -181 183 0
34 169 179 183 -35 0
34 -169 -179 -183 -35 0
-34 -179 183 0
-34 169 -183 0
-34 35 0
-34 -169 179 0
35 179 198 202 -36 0
35 -179 -198 -202 -36 0
-35 -198 202 0
-35 179 -202 0
-35 36 0
-35 -179 198 0
36 202 206 210 -37 0
36 -202 -206 -210 -37 0
-36 -206 210 0
-36 202 -210 0
-36 37 0
-36 -202 206 0
37 210 214 218 -38 0
37 -210 -214 -218 -38 0
-37 -214 218 0
-37 210 -218 0
-37 38 0
-37 -210 214 0
38 218 222 226 -39 0
38 -218 -222 -226 -39 0
-38 -222 226 0
-38 218 -226 0
-38 39 0
-38 -218 222 0
39 -226 -230 -232 -40 0
-39 40 0
-39 226 0
-39 232 0
-39 230 0
40 -164 166 167 41 0
-40 -41 0
-40 -167 0
-40 164 0
-40 -166 0
-41 167 168 174 42 0
-41 -167 -168 -174 42 0
41 -168 174 0
41 167 -174 0
41 -42 0
41 -167 168 0
-42 174 175 176 43 0
-42 -174 -175 -176 43 0
42 -175 176 0
42 174 -176 0
42 -43 0
42 -174 175 0
-43 176 184 187 44 0
-43 -176 -184 -187 44 0
43 -184 187 0
43 176 -187 0
43 -44 0
43 -176 184 0
-44 187 188 189 45 0
-44 -187 -188 -189 45 0
44 -188 189 0
44 187 -189 0
44 -45 0
44 -187 188 0
-45 189 191 193 46 0
-45 -189 -191 -193 46 0
45 -191 193 0
45 189 -193 0
45 -46 0
45 -189 191 0
-46 182 193 195 47 0
-46 -182 -193 -195 47 0
46 -193 195 0
46 182 -195 0
46 -47 0
46 -182 193 0
-47 171 177 195 48 0
-47 -171 -177 -195 48 0
47 -177 195 0
47 171 -195 0
47 -48 0
47 -171 177 0
-48 177 196 200 49 0
-48 -177 -196 -200 49 0
48 -196 200 0
48 177 -200 0
48 -49 0
48 -177 196 0
-49 200 204 208 50 0
-49 -200 -204 -208 50 0
49 -204 208 0
49 200 -208 0
49 -50 0
49 -200 204 0
-50 208 212 216 51 0
-50 -208 -212 -216 51 0
50 -212 216 0
50 208 -216 0
50 -51 0
50 -208 212 0
-51 216 220 224 52 0
-51 -216 -220 -224 52 0
51 -220 224 0
51 216 -224 0
51 -52 0
51 -216 220 0
-52 224 228 234 0
52 -224 0
52 -234 0
52 -228 0
53 311 -54 0
53 -235 -54 -161 0
53 235 -54 161 0
-53 54 0
-53 235 -311 -161 0
-53 -235 -311 161 0
54 165 55 -57 -160 0
54 -165 -55 -57 -160 0
-54 160 0
-54 165 -55 0
-54 57 0
-54 -165 55 0
-55 -164 238 0
-55 164 -56 0
-55 164 168 0
55 -164 -238 0
55 164 -168 56 0
56 -166 167 0
-56 166 0
-56 -167 0
57 170 -58 59 -64 0
57 -170 58 59 -64 0
-57 64 0
-57 -170 -58 0
-57 -59 0
-57 170 58 0
-58 164 -56 0
-58 -164 -243 0
-58 164 168 0
58 -164 243 0
58 164 -168 56 0
-59 172 60 0
-59 -172 -60 0
59 -172 60 0
59 172 -60 0
-60 245 63 0
-60 61 -62 0
-60 61 63 0
-60 245 -62 0
60 -245 -61 0
60 62 -63 0
61 -164 -238 0
-61 164 0
-61 238 0
62 -164 243 0
-62 164 0
-62 -243 0
-63 173 174 175 176 0
63 -176 0
63 -175 0
63 -173 0
63 -174 0
64 178 -65 66 79 0
64 -178 65 66 79 0
-64 -79 0
-64 -178 -65 0
-64 -66 0
-64 178 65 0
-65 -251 63 0
-65 -61 62 0
-65 -251 -61 0
-65 62 63 0
65 61 -63 0
65 251 -62 0
-66 180 67 0
-66 -180 -67 0
66 -180 67 0
66 180 -67 0
-67 68 -78 0
-67 68 73 0
-67 68 72 0
67 -68 0
67 -72 -73 78 0
68 -253 69 0
-68 253 0
-68 -69 0
69 -70 71 0
-69 70 0
-69 -71 0
70 -164 243 -65 0
-70 164 0
-70 65 0
-70 -243 0
71 -237 -238 -245 0
-71 237 0
-71 238 0
-71 245 0
72 -164 -238 -60 0
-72 164 0
-72 238 0
-72 60 0
73 -267 -268 -74 -75 0
-73 75 0
-73 267 0
-73 74 0
-73 268 0
74 -254 255 -256 0
-74 254 0
-74 -255 0
-74 256 0
75 264 -265 266 -76 0
-75 265 0
-75 -266 0
-75 -264 0
-75 76 0
76 261 262 -263 -77 0
-76 -261 0
-76 77 0
-76 263 0
-76 -262 0
77 257 258 -259 260 0
-77 -257 0
-77 -260 0
-77 259 0
-77 -258 0
78 -237 243 251 0
-78 237 0
-78 -251 0
-78 -243 0
-79 197 80 83 90 0
-79 -197 -80 83 90 0
79 -90 0
79 -197 80 0
79 -83 0
79 197 -80 0
80 73 -81 0
80 -71 -81 0
80 70 -81 0
-80 81 0
-80 -70 71 -73 0
-81 270 82 0
81 -270 0
81 -82 0
82 -72 78 0
-82 72 0
-82 -78 0
-83 199 84 0
-83 -199 -84 0
83 -199 84 0
83 199 -84 0
-84 -78 85 0
-84 85 86 0
-84 72 85 0
84 -85 0
84 -72 78 -86 0
85 -272 69 0
-85 272 0
-85 -69 0
86 -267 -268 -74 -87 0
-86 87 0
-86 267 0
-86 74 0
-86 268 0
87 264 -265 266 -88 0
-87 265 0
-87 -266 0
-87 -264 0
-87 88 0
88 261 262 -263 -89 0
-88 -261 0
-88 89 0
-88 263 0
-88 -262 0
89 -257 258 -259 260 0
-89 259 0
-89 -260 0
-89 257 0
-89 -258 0
-90 201 91 93 96 0
-90 -201 -91 93 96 0
90 -96 0
90 -201 91 0
90 -93 0
90 201 -91 0
91 86 -92 0
91 -71 -92 0
91 70 -92 0
-91 92 0
-91 -70 71 -86 0
-92 274 82 0
92 -274 0
92 -82 0
-93 203 94 0
-93 -203 -94 0
93 -203 94 0
93 203 -94 0
-94 -69 95 0
-94 276 95 0
94 -95 0
94 -276 69 0
95 -253 -72 78 0
95 -272 -72 78 0
-95 72 0
-95 -78 0
-95 253 272 0
-96 205 97 99 106 0
-96 -205 -97 99 106 0
96 -106 0
96 -205 97 0
96 -99 0
96 205 -97 0
97 -278 98 0
97 -82 98 0
-97 -98 0
-97 278 82 0
98 274 -70 71 0
98 270 -70 71 0
-98 70 0
-98 -71 0
-98 -270 -274 0
-99 207 100 0
-99 -207 -100 0
99 -207 100 0
99 207 -100 0
-100 -78 101 0
-100 101 102 0
-100 72 101 0
100 -101 0
100 -72 78 -102 0
101 -280 69 0
-101 280 0
-101 -69 0
102 -267 -268 -74 -103 0
-102 103 0
-102 267 0
-102 74 0
-102 268 0
103 264 -265 266 -104 0
-103 265 0
-103 -266 0
-103 -264 0
-103 104 0
104 261 262 -263 -105 0
-104 -261 0
-104 105 0
-104 263 0
-104 -262 0
105 257 -258 -259 260 0
-105 -257 0
-105 -260 0
-105 259 0
-105 258 0
-106 209 107 109 116 0
-106 -209 -107 109 116 0
106 -116 0
106 -209 107 0
106 -109 0
106 209 -107 0
107 102 -108 0
107 -71 -108 0
107 70 -108 0
-107 108 0
-107 -70 71 -102 0
-108 282 82 0
108 -282 0
108 -82 0
-109 211 110 0
-109 -211 -110 0
109 -211 110 0
109 211 -110 0
-110 -78 111 0
-110 111 112 0
-110 72 111 0
110 -111 0
110 -72 78 -112 0
111 -284 69 0
-111 284 0
-111 -69 0
112 -267 -268 -74 -113 0
-112 113 0
-112 267 0
-112 74 0
-112 268 0
113 264 -265 266 -114 0
-113 265 0
-113 -266 0
-113 -264 0
-113 114 0
114 261 262 -263 -115 0
-114 -261 0
-114 115 0
-114 263 0
-114 -262 0
115 -257 -258 -259 260 0
-115 259 0
-115 -260 0
-115 257 0
-115 258 0
-116 213 117 119 122 0
-116 -213 -117 119 122 0
116 -122 0
116 -213 117 0
116 -119 0
116 213 -117 0
117 112 -118 0
117 -71 -118 0
117 70 -118 0
-117 118 0
-117 -70 71 -112 0
-118 286 82 0
118 -286 0
118 -82 0
-119 215 120 0
-119 -215 -120 0
119 -215 120 0
119 215 -120 0
-120 -69 121 0
-120 288 121 0
120 -121 0
120 -288 69 0
121 -280 -72 78 0
121 -284 -72 78 0
-121 72 0
-121 -78 0
-121 280 284 0
-122 217 123 125 132 0
-122 -217 -123 125 132 0
122 -132 0
122 -217 123 0
122 -125 0
122 217 -123 0
123 -290 124 0
123 -82 124 0
-123 -124 0
-123 290 82 0
124 286 -70 71 0
124 282 -70 71 0
-124 70 0
-124 -71 0
-124 -282 -286 0
-125 219 126 0
-125 -219 -126 0
125 -219 126 0
125 219 -126 0
-126 -78 127 0
-126 127 128 0
-126 72 127 0
126 -127 0
126 -72 78 -128 0
127 -292 69 0
-127 292 0
-127 -69 0
128 -267 -268 -74 -129 0
-128 129 0
-128 267 0
-128 74 0
-128 268 0
129 264 -265 266 -130 0
-129 265 0
-129 -266 0
-129 -264 0
-129 130 0
130 261 262 -263 -131 0
-130 -261 0
-130 131 0
-130 263 0
-130 -262 0
131 257 258 259 -260 0
-131 260 0
-131 -259 0
-131 -257 0
-131 -258 0
-132 221 133 135 142 0
-132 -221 -133 135 142 0
132 -142 0
132 -221 133 0
132 -135 0
132 221 -133 0
133 128 -134 0
133 -71 -134 0
133 70 -134 0
-133 134 0
-133 -70 71 -128 0
-134 294 82 0
134 -294 0
134 -82 0
-135 223 136 0
-135 -223 -136 0
135 -223 136 0
135 223 -136 0
-136 -78 137 0
-136 137 138 0
-136 72 137 0
136 -137 0
136 -72 78 -138 0
137 -296 69 0
-137 296 0
-137 -69 0
138 -267 -268 -74 -139 0
-138 139 0
-138 267 0
-138 74 0
-138 268 0
139 264 -265 266 -140 0
-139 265 0
-139 -266 0
-139 -264 0
-139 140 0
140 261 262 -263 -141 0
-140 -261 0
-140 141 0
-140 263 0
-140 -262 0
141 -257 258 259 -260 0
-141 260 0
-141 -259 0
-141 257 0
-141 -258 0
-142 225 143 145 148 0
-142 -225 -143 145 148 0
142 -148 0
142 -225 143 0
142 -145 0
142 225 -143 0
143 138 -144 0
143 -71 -144 0
143 70 -144 0
-143 144 0
-143 -70 71 -138 0
-144 298 82 0
144 -298 0
144 -82 0
-145 227 146 0
-145 -227 -146 0
145 -227 146 0
145 227 -146 0
-146 -69 147 0
-146 300 147 0
146 -147 0
146 -300 69 0
147 -292 -72 78 0
147 -296 -72 78 0
-147 72 0
-147 -78 0
-147 292 296 0
-148 -229 -149 151 0
-148 229 149 151 0
148 -151 0
148 -229 149 0
148 229 -149 0
149 -302 150 0
149 -82 150 0
-149 -150 0
-149 302 82 0
150 298 -70 71 0
150 294 -70 71 0
-150 70 0
-150 -71 0
-150 -294 -298 0
-151 231 -233 152 -156 0
-151 231 233 152 156 0
-151 -231 -233 -152 -156 0
-151 -231 233 -152 156 0
151 -231 152 0
151 231 -152 0
151 233 -156 0
151 -233 156 0
-152 -69 153 0
-152 304 153 0
152 -153 0
152 -304 69 0
153 -294 -72 78 -154 0
-153 154 0
-153 294 0
-153 72 0
-153 -78 0
154 -282 -286 -298 -155 0
-154 155 0
-154 282 0
-154 298 0
-154 286 0
155 -270 -274 0
-155 270 0
-155 274 0
156 -306 157 0
156 -82 157 0
-156 -157 0
-156 306 82 0
157 292 -70 71 158 0
-157 70 0
-157 -71 0
-157 -292 0
-157 -158 0
-158 280 284 296 159 0
158 -159 0
158 -296 0
158 -280 0
158 -284 0
-159 253 272 0
159 -253 0
159 -272 0
160 237 -309 0
160 -237 309 0
-160 -237 -309 0
-160 237 309 0
161 -162 163 0
-161 162 0
-161 -163 0
162 -278 -302 -306 0
162 -278 -290 -302 0
162 -278 -290 -306 0
162 -290 -302 -306 0
-162 302 306 0
-162 278 290 0
-162 290 302 0
-162 290 306 0
-162 278 302 0
-162 278 306 0
-163 276 300 304 0
-163 288 300 304 0
-163 276 288 304 0
-163 276 288 300 0
163 -276 -300 0
163 -288 -304 0
163 -288 -300 0
163 -276 -288 0
163 -300 -304 0
163 -276 -304 0
-313 0
2 0
311 0
164 0
165 0
166 0
167 0
168 0
169 0
170 0
171 0
172 0
173 0
174 0
175 0
176 0
177 0
178 0
179 0
180 0
181 0
182 0
183 0
184 0
185 0
186 0
187 0
188 0
189 0
190 0
191 0
192 0
193 0
194 0
195 0
196 0
197 0
198 0
199 0
200 0
201 0
202 0
203 0
204 0
205 0
206 0
207 0
208 0
209 0
210 0
211 0
212 0
213 0
214 0
215 0
216 0
217 0
218 0
219 0
220 0
221 0
222 0
223 0
224 0
225 0
226 0
227 0
228 0
229 0
230 0
231 0
232 0
233 0
234 0
3 0
4 0
235 0
-313 0
5 0

